p cnf 459 1883
-1 5 0
-26 -1 5 0
-26 1 -5 0
26 1 5 0
26 -1 -5 0
-26 -2 4 0
-27 26 0
-27 -2 4 0
-27 2 -4 0
27 -26 -2 -4 0
27 -26 2 4 0
-27 -4 2 0
-29 27 0
-29 -4 2 0
-29 4 -2 0
29 -27 -4 -2 0
29 -27 4 2 0
-29 -5 1 0
-30 29 0
-30 -5 1 0
-30 5 -1 0
30 -29 -5 -1 0
30 -29 5 1 0
-30 -6 10 0
-31 30 0
-31 -6 10 0
-31 6 -10 0
31 -30 -6 -10 0
31 -30 6 10 0
-31 -7 9 0
-32 31 0
-32 -7 9 0
-32 7 -9 0
32 -31 -7 -9 0
32 -31 7 9 0
-32 -9 7 0
-34 32 0
-34 -9 7 0
-34 9 -7 0
34 -32 -9 -7 0
34 -32 9 7 0
-34 -10 6 0
-35 34 0
-35 -10 6 0
-35 10 -6 0
35 -34 -10 -6 0
35 -34 10 6 0
-35 -11 15 0
-36 35 0
-36 -11 15 0
-36 11 -15 0
36 -35 -11 -15 0
36 -35 11 15 0
-36 -12 14 0
-37 36 0
-37 -12 14 0
-37 12 -14 0
37 -36 -12 -14 0
37 -36 12 14 0
-37 -14 12 0
-39 37 0
-39 -14 12 0
-39 14 -12 0
39 -37 -14 -12 0
39 -37 14 12 0
-39 -15 11 0
-40 39 0
-40 -15 11 0
-40 15 -11 0
40 -39 -15 -11 0
40 -39 15 11 0
-40 -16 20 0
-41 40 0
-41 -16 20 0
-41 16 -20 0
41 -40 -16 -20 0
41 -40 16 20 0
-41 -17 19 0
-42 41 0
-42 -17 19 0
-42 17 -19 0
42 -41 -17 -19 0
42 -41 17 19 0
-42 -19 17 0
-44 42 0
-44 -19 17 0
-44 19 -17 0
44 -42 -19 -17 0
44 -42 19 17 0
-44 -20 16 0
-45 44 0
-45 -20 16 0
-45 20 -16 0
45 -44 -20 -16 0
45 -44 20 16 0
-45 -21 25 0
-46 45 0
-46 -21 25 0
-46 21 -25 0
46 -45 -21 -25 0
46 -45 21 25 0
-46 -22 24 0
-47 46 0
-47 -22 24 0
-47 22 -24 0
47 -46 -22 -24 0
47 -46 22 24 0
-47 -24 22 0
-49 47 0
-49 -24 22 0
-49 24 -22 0
49 -47 -24 -22 0
49 -47 24 22 0
-49 -25 21 0
-50 49 0
-50 -25 21 0
-50 25 -21 0
50 -49 -25 -21 0
50 -49 25 21 0
-21 22 16 0
-20 19 25 0
-24 23 25 0
-17 16 18 12 0
-3 2 4 0
-13 12 14 8 0
-6 7 11 0
-9 8 10 4 0
-23 22 24 18 0
-16 17 21 0
-19 18 20 14 0
-2 1 3 7 0
-15 14 10 0
-8 7 9 13 0
-5 4 0
-12 11 13 17 0
-18 17 19 23 0
-22 21 23 0
-25 24 20 0
-1 2 0
-7 6 8 2 0
-4 3 5 9 0
-11 12 6 0
-10 9 15 0
-14 13 15 19 0
-51 1 0
-51 2 0
-51 3 0
-51 4 0
-51 5 0
-52 11 0
-52 12 0
-52 13 0
-52 14 0
-52 15 0
-53 21 0
-53 22 0
-53 23 0
-53 24 0
-53 25 0
51 52 53 0
-54 2 0
-54 3 0
-54 4 0
-54 5 0
-54 7 0
-55 6 0
-55 7 0
-55 8 0
-55 9 0
-55 11 0
-56 12 0
-56 13 0
-56 14 0
-56 15 0
-56 17 0
-57 16 0
-57 17 0
-57 18 0
-57 19 0
-57 21 0
54 55 56 57 0
-58 2 0
-58 6 0
-58 7 0
-58 8 0
-58 9 0
-59 8 0
-59 12 0
-59 13 0
-59 14 0
-59 15 0
-60 12 0
-60 16 0
-60 17 0
-60 18 0
-60 19 0
-61 18 0
-61 22 0
-61 23 0
-61 24 0
-61 25 0
58 59 60 61 0
-62 2 0
-62 3 0
-62 4 0
-62 5 0
-62 9 0
-63 6 0
-63 7 0
-63 8 0
-63 9 0
-63 13 0
-64 12 0
-64 13 0
-64 14 0
-64 15 0
-64 19 0
-65 16 0
-65 17 0
-65 18 0
-65 19 0
-65 23 0
62 63 64 65 0
-66 6 0
-66 7 0
-66 8 0
-66 9 0
-66 10 0
-67 16 0
-67 17 0
-67 18 0
-67 19 0
-67 20 0
66 67 0
-68 4 0
-68 6 0
-68 7 0
-68 8 0
-68 9 0
-69 10 0
-69 12 0
-69 13 0
-69 14 0
-69 15 0
-70 14 0
-70 16 0
-70 17 0
-70 18 0
-70 19 0
-71 20 0
-71 22 0
-71 23 0
-71 24 0
-71 25 0
68 69 70 71 0
-72 1 0
-72 2 0
-72 7 0
-72 8 0
-72 9 0
-73 7 0
-73 8 0
-73 13 0
-73 14 0
-73 15 0
-74 11 0
-74 12 0
-74 17 0
-74 18 0
-74 19 0
-75 17 0
-75 18 0
-75 23 0
-75 24 0
-75 25 0
72 73 74 75 0
-76 2 0
-76 3 0
-76 7 0
-76 8 0
-76 9 0
-77 6 0
-77 7 0
-77 11 0
-77 12 0
-77 13 0
-78 8 0
-78 9 0
-78 13 0
-78 14 0
-78 15 0
-79 12 0
-79 13 0
-79 17 0
-79 18 0
-79 19 0
-80 16 0
-80 17 0
-80 21 0
-80 22 0
-80 23 0
-81 18 0
-81 19 0
-81 23 0
-81 24 0
-81 25 0
76 77 78 79 80 81 0
-82 2 0
-82 7 0
-82 8 0
-82 9 0
-82 13 0
-83 6 0
-83 11 0
-83 12 0
-83 13 0
-83 17 0
-84 8 0
-84 13 0
-84 14 0
-84 15 0
-84 19 0
-85 12 0
-85 17 0
-85 18 0
-85 19 0
-85 23 0
82 83 84 85 0
-86 2 0
-86 7 0
-86 8 0
-86 9 0
-86 10 0
-87 6 0
-87 11 0
-87 12 0
-87 13 0
-87 14 0
-88 12 0
-88 17 0
-88 18 0
-88 19 0
-88 20 0
-89 16 0
-89 21 0
-89 22 0
-89 23 0
-89 24 0
86 87 88 89 0
-90 2 0
-90 4 0
-90 7 0
-90 8 0
-90 9 0
-91 6 0
-91 8 0
-91 11 0
-91 12 0
-91 13 0
-92 8 0
-92 10 0
-92 13 0
-92 14 0
-92 15 0
-93 12 0
-93 14 0
-93 17 0
-93 18 0
-93 19 0
-94 16 0
-94 18 0
-94 21 0
-94 22 0
-94 23 0
-95 18 0
-95 20 0
-95 23 0
-95 24 0
-95 25 0
90 91 92 93 94 95 0
-96 1 0
-96 2 0
-96 3 0
-96 4 0
-96 7 0
-97 7 0
-97 8 0
-97 9 0
-97 10 0
-97 13 0
-98 11 0
-98 12 0
-98 13 0
-98 14 0
-98 17 0
-99 17 0
-99 18 0
-99 19 0
-99 20 0
-99 23 0
96 97 98 99 0
-100 4 0
-100 7 0
-100 8 0
-100 9 0
-100 13 0
-101 8 0
-101 11 0
-101 12 0
-101 13 0
-101 17 0
-102 10 0
-102 13 0
-102 14 0
-102 15 0
-102 19 0
-103 14 0
-103 17 0
-103 18 0
-103 19 0
-103 23 0
100 101 102 103 0
-104 1 0
-104 2 0
-104 3 0
-104 6 0
-104 7 0
-105 3 0
-105 4 0
-105 5 0
-105 8 0
-105 9 0
-106 7 0
-106 8 0
-106 9 0
-106 12 0
-106 13 0
-107 11 0
-107 12 0
-107 13 0
-107 16 0
-107 17 0
-108 13 0
-108 14 0
-108 15 0
-108 18 0
-108 19 0
-109 17 0
-109 18 0
-109 19 0
-109 22 0
-109 23 0
104 105 106 107 108 109 0
-110 1 0
-110 2 0
-110 3 0
-110 7 0
-110 8 0
-111 3 0
-111 4 0
-111 5 0
-111 9 0
-111 10 0
-112 7 0
-112 8 0
-112 9 0
-112 13 0
-112 14 0
-113 11 0
-113 12 0
-113 13 0
-113 17 0
-113 18 0
-114 13 0
-114 14 0
-114 15 0
-114 19 0
-114 20 0
-115 17 0
-115 18 0
-115 19 0
-115 23 0
-115 24 0
110 111 112 113 114 115 0
-116 4 0
-116 7 0
-116 8 0
-116 9 0
-116 10 0
-117 8 0
-117 11 0
-117 12 0
-117 13 0
-117 14 0
-118 14 0
-118 17 0
-118 18 0
-118 19 0
-118 20 0
-119 18 0
-119 21 0
-119 22 0
-119 23 0
-119 24 0
116 117 118 119 0
-120 1 0
-120 2 0
-120 3 0
-120 4 0
-120 9 0
-121 7 0
-121 8 0
-121 9 0
-121 10 0
-121 15 0
-122 11 0
-122 12 0
-122 13 0
-122 14 0
-122 19 0
-123 17 0
-123 18 0
-123 19 0
-123 20 0
-123 25 0
120 121 122 123 0
-124 3 0
-124 4 0
-124 7 0
-124 8 0
-124 9 0
-125 7 0
-125 8 0
-125 11 0
-125 12 0
-125 13 0
-126 9 0
-126 10 0
-126 13 0
-126 14 0
-126 15 0
-127 13 0
-127 14 0
-127 17 0
-127 18 0
-127 19 0
-128 17 0
-128 18 0
-128 21 0
-128 22 0
-128 23 0
-129 19 0
-129 20 0
-129 23 0
-129 24 0
-129 25 0
124 125 126 127 128 129 0
-130 4 0
-130 5 0
-130 7 0
-130 8 0
-130 9 0
-131 8 0
-131 9 0
-131 11 0
-131 12 0
-131 13 0
-132 14 0
-132 15 0
-132 17 0
-132 18 0
-132 19 0
-133 18 0
-133 19 0
-133 21 0
-133 22 0
-133 23 0
130 131 132 133 0
-134 2 0
-134 6 0
-134 7 0
-134 8 0
-134 11 0
-135 4 0
-135 8 0
-135 9 0
-135 10 0
-135 13 0
-136 8 0
-136 12 0
-136 13 0
-136 14 0
-136 17 0
-137 12 0
-137 16 0
-137 17 0
-137 18 0
-137 21 0
-138 14 0
-138 18 0
-138 19 0
-138 20 0
-138 23 0
134 135 136 137 138 0
-139 2 0
-139 3 0
-139 4 0
-139 7 0
-139 9 0
-140 6 0
-140 7 0
-140 8 0
-140 11 0
-140 13 0
-141 8 0
-141 9 0
-141 10 0
-141 13 0
-141 15 0
-142 12 0
-142 13 0
-142 14 0
-142 17 0
-142 19 0
-143 16 0
-143 17 0
-143 18 0
-143 21 0
-143 23 0
-144 18 0
-144 19 0
-144 20 0
-144 23 0
-144 25 0
139 140 141 142 143 144 0
-145 2 0
-145 3 0
-145 4 0
-145 6 0
-145 7 0
-146 8 0
-146 9 0
-146 10 0
-146 12 0
-146 13 0
-147 12 0
-147 13 0
-147 14 0
-147 16 0
-147 17 0
-148 18 0
-148 19 0
-148 20 0
-148 22 0
-148 23 0
145 146 147 148 0
-149 2 0
-149 3 0
-149 4 0
-149 7 0
-149 8 0
-150 6 0
-150 7 0
-150 8 0
-150 11 0
-150 12 0
-151 8 0
-151 9 0
-151 10 0
-151 13 0
-151 14 0
-152 12 0
-152 13 0
-152 14 0
-152 17 0
-152 18 0
-153 16 0
-153 17 0
-153 18 0
-153 21 0
-153 22 0
-154 18 0
-154 19 0
-154 20 0
-154 23 0
-154 24 0
149 150 151 152 153 154 0
-155 1 0
-155 2 0
-155 6 0
-155 7 0
-155 11 0
-156 3 0
-156 4 0
-156 8 0
-156 9 0
-156 13 0
-157 7 0
-157 8 0
-157 12 0
-157 13 0
-157 17 0
-158 9 0
-158 10 0
-158 14 0
-158 15 0
-158 19 0
-159 11 0
-159 12 0
-159 16 0
-159 17 0
-159 21 0
-160 13 0
-160 14 0
-160 18 0
-160 19 0
-160 23 0
155 156 157 158 159 160 0
-161 2 0
-161 3 0
-161 6 0
-161 7 0
-161 11 0
-162 4 0
-162 5 0
-162 8 0
-162 9 0
-162 13 0
-163 8 0
-163 9 0
-163 12 0
-163 13 0
-163 17 0
-164 12 0
-164 13 0
-164 16 0
-164 17 0
-164 21 0
-165 14 0
-165 15 0
-165 18 0
-165 19 0
-165 23 0
161 162 163 164 165 0
-166 4 0
-166 8 0
-166 9 0
-166 12 0
-166 13 0
-167 8 0
-167 12 0
-167 13 0
-167 16 0
-167 17 0
-168 10 0
-168 14 0
-168 15 0
-168 18 0
-168 19 0
-169 14 0
-169 18 0
-169 19 0
-169 22 0
-169 23 0
166 167 168 169 0
-170 2 0
-170 6 0
-170 7 0
-170 11 0
-170 12 0
-171 4 0
-171 8 0
-171 9 0
-171 13 0
-171 14 0
-172 8 0
-172 12 0
-172 13 0
-172 17 0
-172 18 0
-173 10 0
-173 14 0
-173 15 0
-173 19 0
-173 20 0
-174 12 0
-174 16 0
-174 17 0
-174 21 0
-174 22 0
-175 14 0
-175 18 0
-175 19 0
-175 23 0
-175 24 0
170 171 172 173 174 175 0
-176 2 0
-176 3 0
-176 6 0
-176 7 0
-176 8 0
-177 4 0
-177 5 0
-177 8 0
-177 9 0
-177 10 0
-178 8 0
-178 9 0
-178 12 0
-178 13 0
-178 14 0
-179 12 0
-179 13 0
-179 16 0
-179 17 0
-179 18 0
-180 14 0
-180 15 0
-180 18 0
-180 19 0
-180 20 0
-181 18 0
-181 19 0
-181 22 0
-181 23 0
-181 24 0
176 177 178 179 180 181 0
-182 2 0
-182 3 0
-182 7 0
-182 8 0
-182 13 0
-183 4 0
-183 5 0
-183 9 0
-183 10 0
-183 15 0
-184 6 0
-184 7 0
-184 11 0
-184 12 0
-184 17 0
-185 8 0
-185 9 0
-185 13 0
-185 14 0
-185 19 0
-186 12 0
-186 13 0
-186 17 0
-186 18 0
-186 23 0
-187 14 0
-187 15 0
-187 19 0
-187 20 0
-187 25 0
182 183 184 185 186 187 0
-188 1 0
-188 2 0
-188 6 0
-188 7 0
-188 8 0
-189 3 0
-189 4 0
-189 8 0
-189 9 0
-189 10 0
-190 7 0
-190 8 0
-190 12 0
-190 13 0
-190 14 0
-191 11 0
-191 12 0
-191 16 0
-191 17 0
-191 18 0
-192 13 0
-192 14 0
-192 18 0
-192 19 0
-192 20 0
-193 17 0
-193 18 0
-193 22 0
-193 23 0
-193 24 0
188 189 190 191 192 193 0
-194 2 0
-194 6 0
-194 7 0
-194 8 0
-194 13 0
-195 4 0
-195 8 0
-195 9 0
-195 10 0
-195 15 0
-196 8 0
-196 12 0
-196 13 0
-196 14 0
-196 19 0
-197 12 0
-197 16 0
-197 17 0
-197 18 0
-197 23 0
-198 14 0
-198 18 0
-198 19 0
-198 20 0
-198 25 0
194 195 196 197 198 0
-199 2 0
-199 3 0
-199 4 0
-199 8 0
-199 9 0
-200 6 0
-200 7 0
-200 8 0
-200 12 0
-200 13 0
-201 8 0
-201 9 0
-201 10 0
-201 14 0
-201 15 0
-202 12 0
-202 13 0
-202 14 0
-202 18 0
-202 19 0
-203 16 0
-203 17 0
-203 18 0
-203 22 0
-203 23 0
-204 18 0
-204 19 0
-204 20 0
-204 24 0
-204 25 0
199 200 201 202 203 204 0
-205 2 0
-205 3 0
-205 4 0
-205 9 0
-205 10 0
-206 6 0
-206 7 0
-206 8 0
-206 13 0
-206 14 0
-207 12 0
-207 13 0
-207 14 0
-207 19 0
-207 20 0
-208 16 0
-208 17 0
-208 18 0
-208 23 0
-208 24 0
205 206 207 208 0
-209 2 0
-209 7 0
-209 8 0
-209 12 0
-209 13 0
-210 4 0
-210 9 0
-210 10 0
-210 14 0
-210 15 0
-211 6 0
-211 11 0
-211 12 0
-211 16 0
-211 17 0
-212 8 0
-212 13 0
-212 14 0
-212 18 0
-212 19 0
-213 12 0
-213 17 0
-213 18 0
-213 22 0
-213 23 0
-214 14 0
-214 19 0
-214 20 0
-214 24 0
-214 25 0
209 210 211 212 213 214 0
-215 2 0
-215 7 0
-215 8 0
-215 13 0
-215 14 0
-216 6 0
-216 11 0
-216 12 0
-216 17 0
-216 18 0
-217 8 0
-217 13 0
-217 14 0
-217 19 0
-217 20 0
-218 12 0
-218 17 0
-218 18 0
-218 23 0
-218 24 0
215 216 217 218 0
-219 1 0
-219 2 0
-219 7 0
-219 8 0
-219 13 0
-220 3 0
-220 4 0
-220 9 0
-220 10 0
-220 15 0
-221 7 0
-221 8 0
-221 13 0
-221 14 0
-221 19 0
-222 11 0
-222 12 0
-222 17 0
-222 18 0
-222 23 0
-223 13 0
-223 14 0
-223 19 0
-223 20 0
-223 25 0
219 220 221 222 223 0
-262 224 0
-263 225 0
-264 226 0
-265 227 0
-266 228 0
-267 229 0
-268 230 0
-269 231 0
-270 232 0
-271 233 0
-272 234 0
-273 235 0
-249 224 0
-250 225 0
-251 226 0
-252 227 0
-253 228 0
-254 229 0
-255 230 0
-256 231 0
-257 232 0
-258 233 0
-259 234 0
-260 235 0
-261 236 0
-249 -262 225 0
-249 -263 226 0
-249 -264 227 0
-249 -265 228 0
-249 -266 229 0
-249 -267 230 0
-249 -268 231 0
-249 -269 232 0
-249 -270 233 0
-249 -271 234 0
-249 -272 235 0
-249 -273 236 0
-250 -262 226 0
-250 -263 227 0
-250 -264 228 0
-250 -265 229 0
-250 -266 230 0
-250 -267 231 0
-250 -268 232 0
-250 -269 233 0
-250 -270 234 0
-250 -271 235 0
-250 -272 236 0
-250 -273 237 0
-251 -262 227 0
-251 -263 228 0
-251 -264 229 0
-251 -265 230 0
-251 -266 231 0
-251 -267 232 0
-251 -268 233 0
-251 -269 234 0
-251 -270 235 0
-251 -271 236 0
-251 -272 237 0
-251 -273 238 0
-252 -262 228 0
-252 -263 229 0
-252 -264 230 0
-252 -265 231 0
-252 -266 232 0
-252 -267 233 0
-252 -268 234 0
-252 -269 235 0
-252 -270 236 0
-252 -271 237 0
-252 -272 238 0
-252 -273 239 0
-253 -262 229 0
-253 -263 230 0
-253 -264 231 0
-253 -265 232 0
-253 -266 233 0
-253 -267 234 0
-253 -268 235 0
-253 -269 236 0
-253 -270 237 0
-253 -271 238 0
-253 -272 239 0
-253 -273 240 0
-254 -262 230 0
-254 -263 231 0
-254 -264 232 0
-254 -265 233 0
-254 -266 234 0
-254 -267 235 0
-254 -268 236 0
-254 -269 237 0
-254 -270 238 0
-254 -271 239 0
-254 -272 240 0
-254 -273 241 0
-255 -262 231 0
-255 -263 232 0
-255 -264 233 0
-255 -265 234 0
-255 -266 235 0
-255 -267 236 0
-255 -268 237 0
-255 -269 238 0
-255 -270 239 0
-255 -271 240 0
-255 -272 241 0
-255 -273 242 0
-256 -262 232 0
-256 -263 233 0
-256 -264 234 0
-256 -265 235 0
-256 -266 236 0
-256 -267 237 0
-256 -268 238 0
-256 -269 239 0
-256 -270 240 0
-256 -271 241 0
-256 -272 242 0
-256 -273 243 0
-257 -262 233 0
-257 -263 234 0
-257 -264 235 0
-257 -265 236 0
-257 -266 237 0
-257 -267 238 0
-257 -268 239 0
-257 -269 240 0
-257 -270 241 0
-257 -271 242 0
-257 -272 243 0
-257 -273 244 0
-258 -262 234 0
-258 -263 235 0
-258 -264 236 0
-258 -265 237 0
-258 -266 238 0
-258 -267 239 0
-258 -268 240 0
-258 -269 241 0
-258 -270 242 0
-258 -271 243 0
-258 -272 244 0
-258 -273 245 0
-259 -262 235 0
-259 -263 236 0
-259 -264 237 0
-259 -265 238 0
-259 -266 239 0
-259 -267 240 0
-259 -268 241 0
-259 -269 242 0
-259 -270 243 0
-259 -271 244 0
-259 -272 245 0
-259 -273 246 0
-260 -262 236 0
-260 -263 237 0
-260 -264 238 0
-260 -265 239 0
-260 -266 240 0
-260 -267 241 0
-260 -268 242 0
-260 -269 243 0
-260 -270 244 0
-260 -271 245 0
-260 -272 246 0
-260 -273 247 0
-261 -262 237 0
-261 -263 238 0
-261 -264 239 0
-261 -265 240 0
-261 -266 241 0
-261 -267 242 0
-261 -268 243 0
-261 -269 244 0
-261 -270 245 0
-261 -271 246 0
-261 -272 247 0
-261 -273 248 0
-280 262 0
-281 263 0
-282 264 0
-283 265 0
-284 266 0
-285 267 0
-274 262 0
-275 263 0
-276 264 0
-277 265 0
-278 266 0
-279 267 0
-274 -280 263 0
-274 -281 264 0
-274 -282 265 0
-274 -283 266 0
-274 -284 267 0
-274 -285 268 0
-275 -280 264 0
-275 -281 265 0
-275 -282 266 0
-275 -283 267 0
-275 -284 268 0
-275 -285 269 0
-276 -280 265 0
-276 -281 266 0
-276 -282 267 0
-276 -283 268 0
-276 -284 269 0
-276 -285 270 0
-277 -280 266 0
-277 -281 267 0
-277 -282 268 0
-277 -283 269 0
-277 -284 270 0
-277 -285 271 0
-278 -280 267 0
-278 -281 268 0
-278 -282 269 0
-278 -283 270 0
-278 -284 271 0
-278 -285 272 0
-279 -280 268 0
-279 -281 269 0
-279 -282 270 0
-279 -283 271 0
-279 -284 272 0
-279 -285 273 0
-289 280 0
-290 281 0
-291 282 0
-286 280 0
-287 281 0
-288 282 0
-286 -289 281 0
-286 -290 282 0
-286 -291 283 0
-287 -289 282 0
-287 -290 283 0
-287 -291 284 0
-288 -289 283 0
-288 -290 284 0
-288 -291 285 0
25 289 0
-292 289 0
-293 290 0
-292 25 290 0
-293 25 291 0
24 292 0
23 292 0
23 24 293 0
22 286 0
-294 286 0
-295 287 0
-294 22 287 0
-295 22 288 0
21 294 0
20 294 0
20 21 295 0
-299 274 0
-300 275 0
-301 276 0
-296 274 0
-297 275 0
-298 276 0
-296 -299 275 0
-296 -300 276 0
-296 -301 277 0
-297 -299 276 0
-297 -300 277 0
-297 -301 278 0
-298 -299 277 0
-298 -300 278 0
-298 -301 279 0
19 299 0
-302 299 0
-303 300 0
-302 19 300 0
-303 19 301 0
18 302 0
17 302 0
17 18 303 0
16 296 0
-304 296 0
-305 297 0
-304 16 297 0
-305 16 298 0
15 304 0
14 304 0
14 15 305 0
-313 249 0
-314 250 0
-315 251 0
-316 252 0
-317 253 0
-318 254 0
-306 249 0
-307 250 0
-308 251 0
-309 252 0
-310 253 0
-311 254 0
-312 255 0
-306 -313 250 0
-306 -314 251 0
-306 -315 252 0
-306 -316 253 0
-306 -317 254 0
-306 -318 255 0
-307 -313 251 0
-307 -314 252 0
-307 -315 253 0
-307 -316 254 0
-307 -317 255 0
-307 -318 256 0
-308 -313 252 0
-308 -314 253 0
-308 -315 254 0
-308 -316 255 0
-308 -317 256 0
-308 -318 257 0
-309 -313 253 0
-309 -314 254 0
-309 -315 255 0
-309 -316 256 0
-309 -317 257 0
-309 -318 258 0
-310 -313 254 0
-310 -314 255 0
-310 -315 256 0
-310 -316 257 0
-310 -317 258 0
-310 -318 259 0
-311 -313 255 0
-311 -314 256 0
-311 -315 257 0
-311 -316 258 0
-311 -317 259 0
-311 -318 260 0
-312 -313 256 0
-312 -314 257 0
-312 -315 258 0
-312 -316 259 0
-312 -317 260 0
-312 -318 261 0
-322 313 0
-323 314 0
-324 315 0
-319 313 0
-320 314 0
-321 315 0
-319 -322 314 0
-319 -323 315 0
-319 -324 316 0
-320 -322 315 0
-320 -323 316 0
-320 -324 317 0
-321 -322 316 0
-321 -323 317 0
-321 -324 318 0
13 322 0
-325 322 0
-326 323 0
-325 13 323 0
-326 13 324 0
12 325 0
11 325 0
11 12 326 0
10 319 0
-327 319 0
-328 320 0
-327 10 320 0
-328 10 321 0
9 327 0
8 327 0
8 9 328 0
-333 306 0
-334 307 0
-335 308 0
-329 306 0
-330 307 0
-331 308 0
-332 309 0
-329 -333 307 0
-329 -334 308 0
-329 -335 309 0
-330 -333 308 0
-330 -334 309 0
-330 -335 310 0
-331 -333 309 0
-331 -334 310 0
-331 -335 311 0
-332 -333 310 0
-332 -334 311 0
-332 -335 312 0
7 333 0
-336 333 0
-337 334 0
-336 7 334 0
-337 7 335 0
6 336 0
5 336 0
5 6 337 0
-340 329 0
-341 330 0
-338 329 0
-339 330 0
-338 -340 330 0
-338 -341 331 0
-339 -340 331 0
-339 -341 332 0
4 340 0
3 340 0
3 4 341 0
2 338 0
1 338 0
1 2 339 0
-238 0
-380 342 0
-381 343 0
-382 344 0
-383 345 0
-384 346 0
-385 347 0
-386 348 0
-387 349 0
-388 350 0
-389 351 0
-390 352 0
-391 353 0
-367 342 0
-368 343 0
-369 344 0
-370 345 0
-371 346 0
-372 347 0
-373 348 0
-374 349 0
-375 350 0
-376 351 0
-377 352 0
-378 353 0
-379 354 0
-367 -380 343 0
-367 -381 344 0
-367 -382 345 0
-367 -383 346 0
-367 -384 347 0
-367 -385 348 0
-367 -386 349 0
-367 -387 350 0
-367 -388 351 0
-367 -389 352 0
-367 -390 353 0
-367 -391 354 0
-368 -380 344 0
-368 -381 345 0
-368 -382 346 0
-368 -383 347 0
-368 -384 348 0
-368 -385 349 0
-368 -386 350 0
-368 -387 351 0
-368 -388 352 0
-368 -389 353 0
-368 -390 354 0
-368 -391 355 0
-369 -380 345 0
-369 -381 346 0
-369 -382 347 0
-369 -383 348 0
-369 -384 349 0
-369 -385 350 0
-369 -386 351 0
-369 -387 352 0
-369 -388 353 0
-369 -389 354 0
-369 -390 355 0
-369 -391 356 0
-370 -380 346 0
-370 -381 347 0
-370 -382 348 0
-370 -383 349 0
-370 -384 350 0
-370 -385 351 0
-370 -386 352 0
-370 -387 353 0
-370 -388 354 0
-370 -389 355 0
-370 -390 356 0
-370 -391 357 0
-371 -380 347 0
-371 -381 348 0
-371 -382 349 0
-371 -383 350 0
-371 -384 351 0
-371 -385 352 0
-371 -386 353 0
-371 -387 354 0
-371 -388 355 0
-371 -389 356 0
-371 -390 357 0
-371 -391 358 0
-372 -380 348 0
-372 -381 349 0
-372 -382 350 0
-372 -383 351 0
-372 -384 352 0
-372 -385 353 0
-372 -386 354 0
-372 -387 355 0
-372 -388 356 0
-372 -389 357 0
-372 -390 358 0
-372 -391 359 0
-373 -380 349 0
-373 -381 350 0
-373 -382 351 0
-373 -383 352 0
-373 -384 353 0
-373 -385 354 0
-373 -386 355 0
-373 -387 356 0
-373 -388 357 0
-373 -389 358 0
-373 -390 359 0
-373 -391 360 0
-374 -380 350 0
-374 -381 351 0
-374 -382 352 0
-374 -383 353 0
-374 -384 354 0
-374 -385 355 0
-374 -386 356 0
-374 -387 357 0
-374 -388 358 0
-374 -389 359 0
-374 -390 360 0
-374 -391 361 0
-375 -380 351 0
-375 -381 352 0
-375 -382 353 0
-375 -383 354 0
-375 -384 355 0
-375 -385 356 0
-375 -386 357 0
-375 -387 358 0
-375 -388 359 0
-375 -389 360 0
-375 -390 361 0
-375 -391 362 0
-376 -380 352 0
-376 -381 353 0
-376 -382 354 0
-376 -383 355 0
-376 -384 356 0
-376 -385 357 0
-376 -386 358 0
-376 -387 359 0
-376 -388 360 0
-376 -389 361 0
-376 -390 362 0
-376 -391 363 0
-377 -380 353 0
-377 -381 354 0
-377 -382 355 0
-377 -383 356 0
-377 -384 357 0
-377 -385 358 0
-377 -386 359 0
-377 -387 360 0
-377 -388 361 0
-377 -389 362 0
-377 -390 363 0
-377 -391 364 0
-378 -380 354 0
-378 -381 355 0
-378 -382 356 0
-378 -383 357 0
-378 -384 358 0
-378 -385 359 0
-378 -386 360 0
-378 -387 361 0
-378 -388 362 0
-378 -389 363 0
-378 -390 364 0
-378 -391 365 0
-379 -380 355 0
-379 -381 356 0
-379 -382 357 0
-379 -383 358 0
-379 -384 359 0
-379 -385 360 0
-379 -386 361 0
-379 -387 362 0
-379 -388 363 0
-379 -389 364 0
-379 -390 365 0
-379 -391 366 0
-398 380 0
-399 381 0
-400 382 0
-401 383 0
-402 384 0
-403 385 0
-392 380 0
-393 381 0
-394 382 0
-395 383 0
-396 384 0
-397 385 0
-392 -398 381 0
-392 -399 382 0
-392 -400 383 0
-392 -401 384 0
-392 -402 385 0
-392 -403 386 0
-393 -398 382 0
-393 -399 383 0
-393 -400 384 0
-393 -401 385 0
-393 -402 386 0
-393 -403 387 0
-394 -398 383 0
-394 -399 384 0
-394 -400 385 0
-394 -401 386 0
-394 -402 387 0
-394 -403 388 0
-395 -398 384 0
-395 -399 385 0
-395 -400 386 0
-395 -401 387 0
-395 -402 388 0
-395 -403 389 0
-396 -398 385 0
-396 -399 386 0
-396 -400 387 0
-396 -401 388 0
-396 -402 389 0
-396 -403 390 0
-397 -398 386 0
-397 -399 387 0
-397 -400 388 0
-397 -401 389 0
-397 -402 390 0
-397 -403 391 0
-407 398 0
-408 399 0
-409 400 0
-404 398 0
-405 399 0
-406 400 0
-404 -407 399 0
-404 -408 400 0
-404 -409 401 0
-405 -407 400 0
-405 -408 401 0
-405 -409 402 0
-406 -407 401 0
-406 -408 402 0
-406 -409 403 0
-25 407 0
-410 407 0
-411 408 0
-410 -25 408 0
-411 -25 409 0
-24 410 0
-23 410 0
-23 -24 411 0
-22 404 0
-412 404 0
-413 405 0
-412 -22 405 0
-413 -22 406 0
-21 412 0
-20 412 0
-20 -21 413 0
-417 392 0
-418 393 0
-419 394 0
-414 392 0
-415 393 0
-416 394 0
-414 -417 393 0
-414 -418 394 0
-414 -419 395 0
-415 -417 394 0
-415 -418 395 0
-415 -419 396 0
-416 -417 395 0
-416 -418 396 0
-416 -419 397 0
-19 417 0
-420 417 0
-421 418 0
-420 -19 418 0
-421 -19 419 0
-18 420 0
-17 420 0
-17 -18 421 0
-16 414 0
-422 414 0
-423 415 0
-422 -16 415 0
-423 -16 416 0
-15 422 0
-14 422 0
-14 -15 423 0
-431 367 0
-432 368 0
-433 369 0
-434 370 0
-435 371 0
-436 372 0
-424 367 0
-425 368 0
-426 369 0
-427 370 0
-428 371 0
-429 372 0
-430 373 0
-424 -431 368 0
-424 -432 369 0
-424 -433 370 0
-424 -434 371 0
-424 -435 372 0
-424 -436 373 0
-425 -431 369 0
-425 -432 370 0
-425 -433 371 0
-425 -434 372 0
-425 -435 373 0
-425 -436 374 0
-426 -431 370 0
-426 -432 371 0
-426 -433 372 0
-426 -434 373 0
-426 -435 374 0
-426 -436 375 0
-427 -431 371 0
-427 -432 372 0
-427 -433 373 0
-427 -434 374 0
-427 -435 375 0
-427 -436 376 0
-428 -431 372 0
-428 -432 373 0
-428 -433 374 0
-428 -434 375 0
-428 -435 376 0
-428 -436 377 0
-429 -431 373 0
-429 -432 374 0
-429 -433 375 0
-429 -434 376 0
-429 -435 377 0
-429 -436 378 0
-430 -431 374 0
-430 -432 375 0
-430 -433 376 0
-430 -434 377 0
-430 -435 378 0
-430 -436 379 0
-440 431 0
-441 432 0
-442 433 0
-437 431 0
-438 432 0
-439 433 0
-437 -440 432 0
-437 -441 433 0
-437 -442 434 0
-438 -440 433 0
-438 -441 434 0
-438 -442 435 0
-439 -440 434 0
-439 -441 435 0
-439 -442 436 0
-13 440 0
-443 440 0
-444 441 0
-443 -13 441 0
-444 -13 442 0
-12 443 0
-11 443 0
-11 -12 444 0
-10 437 0
-445 437 0
-446 438 0
-445 -10 438 0
-446 -10 439 0
-9 445 0
-8 445 0
-8 -9 446 0
-451 424 0
-452 425 0
-453 426 0
-447 424 0
-448 425 0
-449 426 0
-450 427 0
-447 -451 425 0
-447 -452 426 0
-447 -453 427 0
-448 -451 426 0
-448 -452 427 0
-448 -453 428 0
-449 -451 427 0
-449 -452 428 0
-449 -453 429 0
-450 -451 428 0
-450 -452 429 0
-450 -453 430 0
-7 451 0
-454 451 0
-455 452 0
-454 -7 452 0
-455 -7 453 0
-6 454 0
-5 454 0
-5 -6 455 0
-458 447 0
-459 448 0
-456 447 0
-457 448 0
-456 -458 448 0
-456 -459 449 0
-457 -458 449 0
-457 -459 450 0
-4 458 0
-3 458 0
-3 -4 459 0
-2 456 0
-1 456 0
-1 -2 457 0
-353 0
